language ESSENCE' 1.0
letting initGrid be [
    [1, 1, 2, 3, 4],
[5, 2, 4, 3, 4],
[2, 5, 4, 1, 4],
[2, 3, 1, 3, 3],
[1, 4, 2, 5, 5],
[3, 2, 5, 5, 2]
    ]
letting goalBlocksRemaining be 15
letting noSteps be 2
